SECTION Graph
Nodes 189
Edges 353
E 1 168 1
E 1 169 9
E 2 170 9
E 3 168 9
E 3 169 1
E 4 59 55
E 4 170 1
E 5 150 41
E 5 160 1
E 5 162 1
E 6 165 2
E 6 167 3
E 7 158 21
E 7 161 5
E 7 163 1
E 7 164 7
E 8 151 47
E 8 163 3
E 8 166 7
E 9 153 1
E 9 154 1
E 9 156 5
E 9 161 28
E 10 155 7
E 10 159 1
E 11 133 6
E 11 148 12
E 12 132 18
E 12 148 1
E 12 152 23
E 13 126 3
E 13 130 1
E 13 131 1
E 14 16 1
E 14 131 12
E 14 149 21
E 14 158 47
E 15 16 12
E 15 17 1
E 15 130 1
E 15 131 1
E 16 18 1
E 16 157 47
E 17 18 12
E 17 120 5
E 17 128 1
E 18 133 5
E 19 99 5
E 19 107 12
E 20 107 1
E 20 108 2
E 21 23 10
E 21 32 1
E 21 60 3
E 22 24 10
E 22 61 2
E 23 25 1
E 23 62 3
E 23 143 1
E 24 26 1
E 24 63 2
E 25 64 3
E 25 118 22
E 25 142 1
E 26 65 2
E 26 147 14
E 26 151 27
E 27 30 9
E 27 88 21
E 27 97 1
E 27 127 22
E 28 30 6
E 28 109 1
E 28 113 2
E 28 140 22
E 29 30 1
E 29 97 9
E 29 101 2
E 29 109 6
E 30 134 22
E 31 66 9
E 31 105 21
E 31 129 10
E 32 67 2
E 32 143 10
E 33 34 2
E 33 39 1
E 33 77 1
E 33 83 9
E 34 40 1
E 34 81 1
E 34 85 9
E 35 36 2
E 35 83 6
E 35 96 21
E 36 85 6
E 36 88 1
E 36 97 21
E 37 77 9
E 37 83 1
E 37 94 27
E 38 81 9
E 38 85 1
E 38 88 6
E 38 100 33
E 39 40 2
E 39 71 9
E 39 76 1
E 40 72 9
E 40 79 1
E 41 71 1
E 41 76 9
E 42 72 1
E 42 79 9
E 42 92 33
E 43 44 2
E 43 51 1
E 43 84 1
E 43 89 9
E 44 52 1
E 44 87 1
E 44 90 9
E 45 46 2
E 45 89 6
E 45 91 1
E 46 90 6
E 47 84 9
E 47 89 1
E 47 91 6
E 48 87 9
E 48 90 1
E 49 50 2
E 49 55 5
E 49 74 1
E 49 78 6
E 50 56 5
E 50 75 1
E 50 80 6
E 51 52 2
E 51 78 9
E 51 82 1
E 52 80 9
E 52 86 1
E 53 74 6
E 53 78 1
E 53 82 9
E 54 75 6
E 54 80 1
E 54 86 9
E 55 56 2
E 55 68 6
E 55 70 1
E 56 69 6
E 56 73 1
E 57 68 1
E 57 70 6
E 58 69 1
E 58 73 6
E 60 61 12
E 60 62 10
E 61 63 10
E 62 63 12
E 62 64 1
E 63 65 1
E 64 65 12
E 64 125 22
E 65 145 14
E 66 67 6
E 66 135 10
E 67 141 10
E 68 69 2
E 70 74 5
E 71 72 2
E 73 75 5
E 76 77 1
E 78 80 2
E 79 81 1
E 79 93 33
E 81 95 33
E 82 84 1
E 83 85 2
E 86 87 1
E 88 105 33
E 89 90 2
E 91 92 21
E 92 93 9
E 93 95 1
E 94 96 1
E 94 98 9
E 95 100 9
E 96 97 2
E 96 101 9
E 98 101 1
E 98 104 6
E 99 102 1
E 99 115 12
E 100 105 6
E 101 106 6
E 102 103 1
E 102 119 12
E 103 104 16
E 103 121 12
E 103 123 13
E 104 106 1
E 106 109 2
E 107 110 2
E 107 115 5
E 108 110 1
E 108 112 3
E 109 111 2
E 110 116 3
E 110 122 5
E 111 113 1
E 111 114 1
E 112 116 1
E 112 117 1
E 113 118 1
E 113 142 22
E 114 118 1
E 114 123 3
E 115 119 1
E 115 122 2
E 116 120 1
E 116 128 5
E 117 120 1
E 117 132 12
E 118 125 3
E 119 121 1
E 119 124 2
E 120 133 12
E 121 126 2
E 121 136 13
E 122 124 1
E 122 128 3
E 123 125 1
E 123 136 12
E 124 126 1
E 124 130 3
E 125 137 12
E 126 138 13
E 127 129 1
E 127 134 9
E 128 130 1
E 129 135 9
E 132 133 1
E 134 135 1
E 134 140 6
E 135 141 6
E 136 137 1
E 136 138 2
E 137 139 2
E 137 144 7
E 138 139 1
E 139 146 7
E 140 141 1
E 140 142 2
E 141 143 2
E 142 143 1
E 144 145 1
E 144 146 2
E 145 147 2
E 146 147 1
E 146 149 16
E 147 150 16
E 148 153 23
E 149 150 1
E 149 160 41
E 150 151 3
E 152 153 1
E 152 154 1
E 153 160 28
E 154 155 5
E 155 156 1
E 156 157 6
E 156 159 7
E 157 158 1
E 159 164 28
E 160 161 1
E 161 162 1
E 162 163 5
E 163 165 7
E 164 165 1
E 165 166 3
E 166 167 2
E 167 168 33
E 169 170 2
E 1 171 100000
E 2 171 100000
E 3 171 100000
E 4 171 100000
E 5 172 100000
E 6 172 100000
E 7 172 100000
E 8 172 100000
E 9 173 100000
E 10 173 100000
E 11 174 100000
E 12 174 100000
E 13 175 100000
E 14 175 100000
E 15 176 100000
E 16 176 100000
E 17 177 100000
E 18 177 100000
E 19 178 100000
E 20 178 100000
E 21 179 100000
E 22 179 100000
E 23 180 100000
E 24 180 100000
E 25 181 100000
E 26 181 100000
E 27 182 100000
E 28 182 100000
E 29 182 100000
E 30 182 100000
E 31 183 100000
E 32 183 100000
E 33 184 100000
E 34 184 100000
E 35 184 100000
E 36 184 100000
E 37 184 100000
E 38 184 100000
E 39 185 100000
E 40 185 100000
E 41 185 100000
E 42 185 100000
E 43 186 100000
E 44 186 100000
E 45 186 100000
E 46 186 100000
E 47 186 100000
E 48 186 100000
E 49 187 100000
E 50 187 100000
E 51 187 100000
E 52 187 100000
E 53 187 100000
E 54 187 100000
E 55 188 100000
E 56 188 100000
E 57 188 100000
E 58 188 100000
E 59 189 100000
E 60 179 100000
E 61 179 100000
E 62 180 100000
E 63 180 100000
E 64 181 100000
E 65 181 100000
E 66 183 100000
E 67 183 100000
END

SECTION Terminals
Terminals 19
T 171
T 172
T 173
T 174
T 175
T 176
T 177
T 178
T 179
T 180
T 181
T 182
T 183
T 184
T 185
T 186
T 187
T 188
T 189
END

EOF
